c   #vars: 41   #clauses: 173   #literals: 512
c 
p cnf 41 173
-1 -2 0
10 -19 32 33 0
-4 -5 0
-6 -7 0
-8 -9 0
26 -39 40 41 0
6 7 12 21 24 25 0
-13 -14 0
-15 -16 0
-17 -18 0
6 7 -8 29 0
11 15 16 -34 0
-19 -20 0
30 31 -40 -41 0
-22 -23 0
-24 -25 0
1 2 -8 29 0
-27 -28 0
-30 -31 0
12 21 -24 36 37 0
-32 -33 0
-34 -35 0
19 20 36 37 0
10 -19 26 -41 0
-6 12 21 -36 0
-36 -37 0
15 16 36 37 0
-38 -39 0
-40 -41 0
-1 -15 0
-2 -16 0
-1 -27 0
-2 -28 0
-2 -29 0
3 22 23 -40 0
-1 -36 0
-2 -37 0
-1 -38 0
-2 -39 0
10 19 20 -32 0
-3 -23 0
10 19 20 -26 0
-3 -35 0
13 14 32 33 0
10 -26 32 33 0
12 -24 36 37 0
-1 6 7 29 0
-3 -41 0
-4 -17 0
-5 -18 0
-6 12 21 -24 0
-4 -30 0
-5 -31 0
-4 -38 0
-5 -39 0
-8 12 21 -36 0
-4 -40 0
-5 -41 0
13 14 24 25 0
-6 -15 0
-7 -16 0
-7 -21 0
4 5 38 39 0
-6 -27 0
-7 -28 0
1 2 27 28 0
-19 -20 22 23 0
-7 -29 0
1 2 36 37 0
-6 -40 0
-7 -41 0
6 7 15 16 0
8 9 19 20 0
8 9 22 23 0
11 19 20 -34 0
-8 -19 0
-9 -20 0
4 5 40 41 0
3 -34 40 41 0
-9 -21 0
-8 -22 0
-9 -23 0
10 26 -32 -41 0
19 20 -22 -23 0
-9 -29 0
13 14 36 37 0
-10 26 40 41 0
-10 -20 0
10 -19 26 -39 0
26 38 39 -41 0
1 2 -6 29 0
11 15 16 -19 0
-10 26 38 39 0
-10 -33 0
6 7 -8 21 0
-11 -16 0
8 9 12 21 36 37 0
-11 -20 0
6 7 40 41 0
11 -19 34 35 0
8 9 12 21 24 25 0
-11 -35 0
11 -15 19 20 0
12 24 25 -36 0
-12 -21 0
10 26 -32 -39 0
-12 -25 0
-12 -37 0
-13 -22 0
-14 -23 0
-30 -31 40 41 0
-13 -24 0
-14 -25 0
17 18 34 35 0
-13 -30 0
-14 -31 0
4 5 17 18 0
-13 -32 0
-14 -33 0
15 16 34 35 0
-13 -36 0
-14 -37 0
-15 -30 0
-16 -31 0
1 2 15 16 0
-15 -34 0
-16 -35 0
27 28 38 39 0
-15 -36 0
-16 -37 0
-17 -30 0
-18 -31 0
1 2 38 39 0
-17 -34 0
-18 -35 0
-8 12 21 -24 0
-17 -38 0
-18 -39 0
3 -22 40 41 0
3 -22 34 35 0
13 14 22 23 0
-19 -36 0
-20 -37 0
17 18 38 39 0
12 21 24 25 -36 0
11 -15 34 35 0
22 23 32 33 0
-6 8 9 21 0
27 28 32 33 0
6 7 12 21 36 37 0
6 7 27 28 0
-22 -32 0
-23 -33 0
3 22 23 -34 0
3 34 35 -40 0
15 16 30 31 0
-24 -32 0
-25 -33 0
27 28 40 41 0
-26 -38 0
-6 8 9 29 0
24 25 32 33 0
-26 -40 0
-1 8 9 29 0
17 18 30 31 0
-27 -32 0
-28 -33 0
13 14 30 31 0
-27 -38 0
-28 -39 0
4 5 30 31 0
-27 -40 0
-28 -41 0
